100 151384
87 43 52 89 35 66 4 62 1 63 56 49 85 45 29 61 15 33 7 94 97 13 73 51 48 68 10 77 9 28 79 22 84 53 11 50 91 2 82 57 40 19 30 58 95 98 93 88 23 67 20 59 17 92 14 25 31 24 99 8 78 12 60 83 96 80 100 36 21 47 71 18 55 41 5 42 81 32 72 27 76 26 37 69 34 16 3 6 54 90 64 38 70 44 46 74 75 39 65 86 
